&CONTROL
    calculation = 'relax'
    prefix      = '${PREFIX}'
    outdir      = './tmp'
    pseudo_dir  = './pseudo'
    tprnfor     = .true.
    tstress     = .true.
    forc_conv_thr = 1.0d-4
    etot_conv_thr = 1.0d-6
/
&SYSTEM
    ibrav       = 0
    nat         = ${NAT}
    ntyp        = ${NTYP}
    ecutwfc     = 60.0
    ecutrho     = 480.0
    occupations = 'smearing'
    smearing    = 'mv'
    degauss     = 0.01
/
&ELECTRONS
    conv_thr    = 1.0d-8
    mixing_beta = 0.3
/
&IONS
    ion_dynamics = 'bfgs'
/
&CELL
    cell_dofree = 'none'   ! Fix cell for EOS volume points
/

! K_POINTS: 6x6x3 for rhombo (comp3-5, modelc), 6x6x6 for cubic (comp1-2)
K_POINTS automatic
${KGRID} 0 0 0

! CELL_PARAMETERS and ATOMIC_POSITIONS from DFT/MLIP relaxed coordinates
! Scale cell vectors by (V_target/V_ref)^(1/3) for each EOS volume point
